Route #1: 226 346 386 425 465 546 545 544 584 583 543 502 542 541 581 580 579 578 538 419 379
Route #2: 231 311 351 392 433 472 512 551 591 550 510 549 589 588 548 507 467 427 267
Route #3: 69 109 151 155 156 77
Route #4: 275 354 394 474 553 593 594 555 556 516 517 558 598 599 559 399 279
Route #5: 121 201 241 321 361 401 480 520 521 522 523 483 484 404 324 285 245
Route #6: 86 87 52
Route #7: 167 247 287 366 485 525 526 566 527 487 488 448 489 529 530 531 491 370 330
Route #8: 255 295 335 375 376 457 497 536 535 574 534 533 493 492 452 372 251 171
Route #9: 18 17
Route #10: 137 178 259 260 301 262 222
Cost: 9338798
